NAME : rc201
TYPE : VRPSPD
DIMENSION : 101
VEHICLES : 3
CAPACITY : 1000
DISTANCE : 999999
SCALE : 1000
EDGE_WEIGHT_TYPE : EXACT_2D
NODE_COORD_SECTION
1 40 50
2 25 85
3 22 75
4 22 85
5 20 80
6 20 85
7 18 75
8 15 75
9 15 80
10 10 35
11 10 40
12 8 40
13 8 45
14 5 35
15 5 45
16 2 40
17 0 40
18 0 45
19 44 5
20 42 10
21 42 15
22 40 5
23 40 15
24 38 5
25 38 15
26 35 5
27 95 30
28 95 35
29 92 30
30 90 35
31 88 30
32 88 35
33 87 30
34 85 25
35 85 35
36 67 85
37 65 85
38 65 82
39 62 80
40 60 80
41 60 85
42 58 75
43 55 80
44 55 85
45 55 82
46 20 82
47 18 80
48 2 45
49 42 5
50 42 12
51 72 35
52 55 20
53 25 30
54 20 50
55 55 60
56 30 60
57 50 35
58 30 25
59 15 10
60 10 20
61 15 60
62 45 65
63 65 35
64 65 20
65 45 30
66 35 40
67 41 37
68 64 42
69 40 60
70 31 52
71 35 69
72 65 55
73 63 65
74 2 60
75 20 20
76 5 5
77 60 12
78 23 3
79 8 56
80 6 68
81 47 47
82 49 58
83 27 43
84 37 31
85 57 29
86 63 23
87 21 24
88 12 24
89 24 58
90 67 5
91 37 47
92 49 42
93 53 43
94 61 52
95 57 48
96 56 37
97 55 54
98 4 18
99 26 52
100 26 35
101 31 67
PICKUP_AND_DELIVERY_SECTION
1 0 0 10000000 0 0 0
2 0 0 10000000 0 20 20
3 0 0 10000000 0 12 30
4 0 0 10000000 0 38 10
5 0 0 10000000 0 8 40
6 0 0 10000000 0 34 20
7 0 0 10000000 0 24 20
8 0 0 10000000 0 14 20
9 0 0 10000000 0 32 10
10 0 0 10000000 0 8 20
11 0 0 10000000 0 28 30
12 0 0 10000000 0 28 40
13 0 0 10000000 0 32 20
14 0 0 10000000 0 40 10
15 0 0 10000000 0 28 10
16 0 0 10000000 0 8 20
17 0 0 10000000 0 6 20
18 0 0 10000000 0 38 20
19 0 0 10000000 0 38 20
20 0 0 10000000 0 26 40
21 0 0 10000000 0 2 10
22 0 0 10000000 0 16 10
23 0 0 10000000 0 28 40
24 0 0 10000000 0 12 30
25 0 0 10000000 0 24 10
26 0 0 10000000 0 24 20
27 0 0 10000000 0 4 30
28 0 0 10000000 0 4 20
29 0 0 10000000 0 2 10
30 0 0 10000000 0 2 10
31 0 0 10000000 0 4 10
32 0 0 10000000 0 38 20
33 0 0 10000000 0 30 10
34 0 0 10000000 0 8 10
35 0 0 10000000 0 20 30
36 0 0 10000000 0 8 20
37 0 0 10000000 0 40 40
38 0 0 10000000 0 14 10
39 0 0 10000000 0 26 30
40 0 0 10000000 0 28 10
41 0 0 10000000 0 34 30
42 0 0 10000000 0 28 20
43 0 0 10000000 0 14 10
44 0 0 10000000 0 8 20
45 0 0 10000000 0 10 10
46 0 0 10000000 0 18 10
47 0 0 10000000 0 12 10
48 0 0 10000000 0 34 10
49 0 0 10000000 0 6 10
50 0 0 10000000 0 30 10
51 0 0 10000000 0 4 30
52 0 0 10000000 0 20 19
53 0 0 10000000 0 26 3
54 0 0 10000000 0 32 5
55 0 0 10000000 0 36 16
56 0 0 10000000 0 40 16
57 0 0 10000000 0 8 19
58 0 0 10000000 0 10 23
59 0 0 10000000 0 38 20
60 0 0 10000000 0 20 19
61 0 0 10000000 0 8 17
62 0 0 10000000 0 8 9
63 0 0 10000000 0 36 3
64 0 0 10000000 0 18 6
65 0 0 10000000 0 20 17
66 0 0 10000000 0 24 16
67 0 0 10000000 0 18 16
68 0 0 10000000 0 20 9
69 0 0 10000000 0 22 21
70 0 0 10000000 0 30 27
71 0 0 10000000 0 14 23
72 0 0 10000000 0 12 14
73 0 0 10000000 0 6 8
74 0 0 10000000 0 28 5
75 0 0 10000000 0 6 8
76 0 0 10000000 0 38 16
77 0 0 10000000 0 24 31
78 0 0 10000000 0 30 7
79 0 0 10000000 0 36 27
80 0 0 10000000 0 40 30
81 0 0 10000000 0 4 13
82 0 0 10000000 0 12 10
83 0 0 10000000 0 14 9
84 0 0 10000000 0 38 14
85 0 0 10000000 0 4 18
86 0 0 10000000 0 8 2
87 0 0 10000000 0 20 28
88 0 0 10000000 0 34 13
89 0 0 10000000 0 20 19
90 0 0 10000000 0 8 25
91 0 0 10000000 0 40 6
92 0 0 10000000 0 14 13
93 0 0 10000000 0 18 14
94 0 0 10000000 0 12 3
95 0 0 10000000 0 34 23
96 0 0 10000000 0 28 6
97 0 0 10000000 0 30 26
98 0 0 10000000 0 14 35
99 0 0 10000000 0 6 9
100 0 0 10000000 0 32 15
101 0 0 10000000 0 24 3
DEPOT_SECTION
1 
-1
EOF
